500
300 300
1 240 911
2 240 702
3 240 686
4 240 630
5 239 660
6 239 40
7 239 425
8 239 385
9 239 727
10 238 865
11 237 801
12 237 651
13 237 94
14 236 889
15 236 684
16 235 567
17 235 629
18 235 485
19 235 705
20 235 858
21 235 255
22 235 247
23 234 204
24 234 363
25 234 468
26 233 765
27 233 658
28 233 399
29 233 4
30 232 457
31 232 510
32 232 478
33 232 854
34 231 32
35 231 766
36 231 813
37 230 257
38 230 592
39 230 379
40 230 447
41 230 710
42 228 275
43 228 725
44 228 580
45 227 358
46 227 421
47 227 346
48 227 104
49 226 593
50 226 528
51 226 970
52 226 107
53 224 669
54 223 900
55 223 417
56 222 821
57 222 630
58 222 876
59 222 121
60 222 905
61 221 202
62 221 565
63 221 154
64 220 279
65 220 151
66 220 749
67 220 582
68 220 998
69 219 87
70 219 486
71 218 433
72 217 127
73 216 417
74 216 165
75 215 114
76 215 383
77 215 870
78 215 988
79 214 789
80 214 487
81 214 974
82 214 318
83 213 383
84 212 19
85 212 308
86 212 670
87 211 774
88 211 102
89 211 232
90 210 981
91 209 361
92 209 79
93 209 292
94 208 928
95 208 780
96 207 435
97 206 3
98 206 374
99 206 574
100 206 707
101 205 271
102 205 239
103 205 303
104 205 100
105 205 279
106 204 112
107 204 780
108 204 510
109 204 204
110 203 932
111 203 459
112 202 966
113 202 946
114 202 72
115 202 706
116 202 576
117 202 106
118 201 753
119 201 613
120 201 983
121 201 948
122 201 590
123 201 583
124 200 653
125 199 169
126 199 359
127 197 20
128 197 666
129 197 178
130 195 867
131 195 1
132 195 874
133 195 722
134 195 647
135 194 119
136 194 847
137 194 875
138 193 77
139 193 685
140 193 655
141 192 124
142 192 613
143 192 540
144 192 998
145 191 199
146 191 763
147 190 409
148 190 629
149 190 559
150 189 879
151 189 167
152 189 730
153 189 727
154 189 524
155 188 176
156 188 331
157 187 566
158 187 894
159 186 744
160 185 932
161 185 834
162 185 978
163 184 743
164 184 729
165 184 272
166 184 723
167 184 613
168 184 266
169 183 831
170 182 696
171 182 957
172 182 716
173 182 92
174 182 8
175 182 6
176 181 301
177 181 514
178 181 563
179 181 48
180 181 41
181 180 863
182 180 66
183 180 804
184 180 890
185 179 73
186 179 874
187 178 264
188 178 205
189 178 203
190 178 338
191 177 749
192 177 961
193 176 697
194 176 960
195 176 22
196 176 318
197 176 856
198 175 300
199 174 454
200 174 561
201 173 436
202 172 213
203 171 638
204 171 695
205 170 462
206 170 478
207 169 869
208 169 909
209 169 798
210 169 114
211 169 886
212 169 601
213 169 984
214 168 178
215 168 825
216 168 906
217 168 717
218 167 655
219 167 986
220 167 568
221 167 893
222 167 836
223 167 642
224 165 375
225 165 772
226 165 799
227 165 129
228 165 918
229 165 437
230 163 391
231 163 182
232 163 242
233 163 289
234 162 21
235 162 345
236 161 922
237 161 889
238 161 674
239 160 259
240 160 950
241 159 635
242 159 26
243 158 347
244 157 929
245 156 884
246 156 570
247 156 156
248 156 92
249 155 816
250 155 539
251 155 716
252 155 333
253 154 97
254 154 735
255 154 361
256 154 181
257 154 820
258 153 685
259 152 811
260 152 520
261 152 486
262 152 99
263 151 116
264 150 409
265 150 365
266 150 502
267 149 672
268 149 23
269 148 385
270 148 228
271 148 286
272 148 823
273 147 919
274 147 510
275 146 343
276 146 898
277 146 402
278 145 882
279 145 804
280 144 825
281 144 253
282 143 155
283 143 554
284 143 640
285 143 138
286 143 273
287 143 861
288 140 332
289 140 411
290 140 681
291 139 565
292 139 921
293 139 901
294 139 792
295 139 89
296 138 690
297 138 888
298 137 378
299 136 843
300 135 707
301 134 551
302 134 252
303 134 450
304 134 427
305 132 143
306 132 563
307 132 914
308 131 183
309 131 648
310 131 813
311 130 36
312 130 511
313 130 819
314 129 52
315 128 463
316 127 508
317 127 479
318 127 839
319 125 830
320 125 622
321 125 297
322 124 507
323 124 531
324 123 329
325 123 255
326 122 158
327 122 208
328 122 227
329 121 835
330 120 581
331 120 850
332 119 74
333 119 32
334 118 323
335 118 204
336 118 657
337 117 511
338 117 462
339 117 742
340 117 884
341 117 602
342 116 690
343 116 756
344 116 5
345 115 556
346 114 892
347 112 875
348 112 677
349 112 109
350 112 307
351 111 352
352 110 388
353 110 626
354 110 803
355 109 888
356 109 37
357 109 51
358 109 483
359 108 169
360 108 629
361 107 488
362 107 584
363 107 820
364 106 524
365 106 852
366 106 527
367 106 798
368 106 208
369 106 679
370 105 397
371 105 418
372 105 558
373 105 314
374 104 865
375 104 874
376 103 298
377 102 9
378 102 213
379 102 996
380 102 79
381 102 352
382 102 373
383 101 638
384 101 657
385 100 736
386 100 598
387 100 844
388 100 151
389 100 893
390 100 127
391 99 37
392 97 504
393 97 89
394 97 667
395 96 421
396 96 562
397 96 517
398 96 778
399 96 705
400 95 328
401 95 55
402 95 150
403 95 2
404 95 732
405 95 903
406 94 688
407 93 576
408 93 413
409 93 200
410 93 146
411 93 289
412 93 833
413 93 101
414 92 152
415 92 91
416 92 365
417 91 81
418 91 544
419 90 720
420 90 604
421 90 934
422 89 649
423 89 670
424 88 991
425 88 71
426 88 588
427 88 184
428 88 209
429 87 879
430 86 69
431 86 324
432 86 188
433 86 748
434 86 370
435 86 523
436 86 90
437 84 120
438 84 820
439 84 697
440 84 669
441 84 775
442 83 749
443 83 451
444 82 562
445 81 18
446 80 751
447 80 75
448 79 874
449 79 370
450 79 820
451 79 125
452 78 286
453 78 555
454 77 518
455 77 578
456 77 711
457 77 735
458 77 134
459 76 424
460 76 885
461 76 128
462 76 833
463 76 72
464 75 770
465 75 48
466 75 846
467 75 718
468 74 108
469 73 64
470 73 437
471 73 867
472 72 890
473 71 591
474 71 135
475 71 402
476 70 722
477 70 358
478 70 877
479 70 874
480 69 241
481 69 727
482 69 696
483 68 602
484 68 115
485 68 109
486 67 463
487 67 257
488 66 26
489 65 970
490 64 933
491 62 430
492 61 502
493 61 913
494 61 716
495 61 546
496 60 608
497 60 324
498 60 559
499 60 547
500 60 811
